50
400
280
274
274
269
265
263
259
255
250
249
241
238
237
231
225
225
222
221
220
214
207
198
191
189
188
184
182
179
174
174
174
172
167
165
158
156
154
142
138
137
137
135
131
130
130
118
110
102
100
88
